# Solution for model GasLib-40
# Objective value = 2.9509958632722569e+01
loadshed[innode_1] 0
loadshed[innode_2] 0
loadshed[innode_3] 0
loadshed[innode_4] 0
loadshed[innode_5] 0
loadshed[innode_6] 0
loadshed[innode_7] 0
loadshed[innode_8] 0
loadshed[source_1] -1.0876768676221582e-01
loadshed[source_2] 5.1985875560089712e-02
loadshed[source_3] 2.4344704481121149e-01
loadshed[sink_1] 0
loadshed[sink_2] 0
loadshed[sink_3] 0
loadshed[sink_4] 0
loadshed[sink_5] 0
loadshed[sink_6] 0
loadshed[sink_7] 0
loadshed[sink_8] 0
loadshed[sink_9] 0
loadshed[sink_10] 0
loadshed[sink_11] 0
loadshed[sink_12] 1
loadshed[sink_13] 0
loadshed[sink_14] 0
loadshed[sink_15] 0
loadshed[sink_16] 0
loadshed[sink_17] 0
loadshed[sink_18] 0
loadshed[sink_19] 0
loadshed[sink_20] 0
loadshed[sink_21] 8.0443059155501040e-01
loadshed[sink_22] 0
loadshed[sink_23] 0
loadshed[sink_24] 0
loadshed[sink_25] 0
loadshed[sink_26] 0
loadshed[sink_27] 0
loadshed[sink_28] 0
loadshed[sink_29] 0
flow[source_1,sink_3] 1.7528539159126279e+02
flow[innode_1,sink_16] 1.6354166666666970e+01
flow[innode_6,sink_13] -5.1245001727268686e+00
flow[sink_13,sink_14] -2.1478666839393536e+01
flow[sink_14,sink_10] -3.7832833506060204e+01
flow[sink_25,sink_26] 1.1447916666666947e+02
flow[sink_26,sink_9] 8.1770833333333655e+01
flow[sink_9,sink_18] 6.5416666666666671e+01
flow[sink_26,sink_4] 16.3541666666693
flow[sink_4,sink_20] 0
flow[sink_18,sink_6] 4.9062500000000313e+01
flow[sink_25,innode_8] -1.4257705825792641e+02
flow[sink_6,sink_7] 0
flow[sink_6,sink_22] 3.2708333333333641e+01
flow[sink_7,sink_24] 1.9552541367277428e+01
flow[sink_22,sink_1] 1.6354166666666970e+01
flow[sink_24,sink_21] 3.1983747006107670e+00
flow[sink_21,sink_12] 0
flow[sink_7,sink_5] -35.9067080339441
flow[sink_5,sink_17] -5.2260874700610771e+01
flow[sink_17,sink_4] 0
flow[sink_17,sink_8] -6.8615041367277428e+01
flow[sink_3,sink_23] 16.3541666666697
flow[sink_8,sink_20] -84.9692080339441
flow[sink_25,sink_20] 1.0132337470061077e+02
flow[sink_25,sink_15] -84.4551496032943
flow[sink_15,sink_29] -56.9501419289087
flow[sink_29,sink_28] 1.6354166666667879e+01
flow[sink_29,sink_2] 6.0213341007718938e+01
flow[sink_2,sink_15] 4.3859174341052274e+01
flow[sink_29,innode_7] -1.4987181626996221e+02
flow[innode_4,sink_19] 4.6380358214578543e+01
flow[sink_19,innode_3] 42.4045559659535
flow[innode_4,innode_5] 73.2233086248157
flow[sink_27,innode_5] -73.2233086248157
flow[sink_27,sink_19] 5.6869141958149036e+01
flow[sink_10,sink_11] 3.2708333333333641e+01
flow[sink_10,innode_2] -4.4490777540107025e+01
flow[sink_10,innode_3] -42.4045559659535
flow[innode_6,sink_25] 5.1245001727268686e+00
flow[sink_11,innode_1] 1.6354166666666970e+01
flow[sink_19,innode_2] 4.4490777540107025e+01
flow[source_3,innode_4] 1.1960366683939424e+02
flow[source_2,innode_7] 1.4987181626996221e+02
flow[sink_3,innode_8] 1.4257705825792641e+02
pressure[innode_1] 7.6631040857373662e+01
pressure[innode_2] 7.9134263510901135e+01
pressure[innode_3] 79.0403634235096
pressure[innode_4] 81.01325
pressure[innode_5] 8.0962883147250835e+01
pressure[innode_6] 74.9266138460067
pressure[innode_7] 81.01325
pressure[innode_8] 8.0427337897357077e+01
pressure[source_1] 81.01325
pressure[source_2] 81.01325
pressure[source_3] 81.01325
pressure[sink_1] 5.6191555534002447e+01
pressure[sink_2] 75.4794941543417
pressure[sink_3] 8.0427337897357077e+01
pressure[sink_4] 6.4784602291086273e+01
pressure[sink_5] 3.8368191091879723e+01
pressure[sink_6] 5.8292633144389825e+01
pressure[sink_7] 2.3434872011433953e+01
pressure[sink_8] 4.4850272272904441e+01
pressure[sink_9] 6.1969717947848110e+01
pressure[sink_10] 7.6782742164977208e+01
pressure[sink_11] 7.6631040857373662e+01
pressure[sink_12] 1.0132500000000046e+00
pressure[sink_13] 7.4954864359075415e+01
pressure[sink_14] 7.4993302262962374e+01
pressure[sink_15] 7.5336303616524489e+01
pressure[sink_16] 7.5609391022555982e+01
pressure[sink_17] 42.261248504623
pressure[sink_18] 5.9602747972649453e+01
pressure[sink_19] 7.9134263510901135e+01
pressure[sink_20] 5.0771431127867565e+01
pressure[sink_21] 1.0132500000000046e+00
pressure[sink_22] 5.7255324676357461e+01
pressure[sink_23] 8.0262619885697291e+01
pressure[sink_24] 1.0486690281647668e+00
pressure[sink_25] 74.9266138460067
pressure[sink_26] 6.6863913367559462e+01
pressure[sink_27] 8.0355264987790974e+01
pressure[sink_28] 7.6709483763327029e+01
pressure[sink_29] 77.0047660369442
interdiction[source_1,sink_3] 0
interdiction[innode_1,sink_16] 0
interdiction[innode_6,sink_13] 0
interdiction[sink_13,sink_14] 0
interdiction[sink_14,sink_10] 0
interdiction[sink_25,sink_26] 0
interdiction[sink_26,sink_9] 0
interdiction[sink_9,sink_18] 0
interdiction[sink_26,sink_4] 0
interdiction[sink_4,sink_20] 1
interdiction[sink_18,sink_6] 0
interdiction[sink_25,innode_8] 0
interdiction[sink_6,sink_7] 1
interdiction[sink_6,sink_22] 0
interdiction[sink_7,sink_24] 0
interdiction[sink_22,sink_1] 0
interdiction[sink_24,sink_21] 0
interdiction[sink_21,sink_12] 0
interdiction[sink_7,sink_5] 0
interdiction[sink_5,sink_17] 0
interdiction[sink_17,sink_4] 1
interdiction[sink_17,sink_8] 0
interdiction[sink_3,sink_23] 0
interdiction[sink_8,sink_20] 0
interdiction[sink_25,sink_20] 0
interdiction[sink_25,sink_15] 0
interdiction[sink_15,sink_29] 0
interdiction[sink_29,sink_28] 0
interdiction[sink_29,sink_2] 0
interdiction[sink_2,sink_15] 0
interdiction[sink_29,innode_7] 0
interdiction[innode_4,sink_19] 0
interdiction[sink_19,innode_3] 0
interdiction[innode_4,innode_5] 0
interdiction[sink_27,innode_5] 0
interdiction[sink_27,sink_19] 0
interdiction[sink_10,sink_11] 0
interdiction[sink_10,innode_2] 0
interdiction[sink_10,innode_3] 0
interdiction[innode_6,sink_25] 0
interdiction[sink_11,innode_1] 0
interdiction[sink_19,innode_2] 0
interdiction[source_3,innode_4] 0
interdiction[source_2,innode_7] 0
interdiction[sink_3,innode_8] 0
WCcheckFlow[source_1,sink_3] 39
WCcheckFlow[innode_1,sink_16] 1
WCcheckFlow[innode_6,sink_13] 13
WCcheckFlow[sink_13,sink_14] 12
WCcheckFlow[sink_14,sink_10] 11
WCcheckFlow[sink_25,sink_26] 7
WCcheckFlow[sink_26,sink_9] 5
WCcheckFlow[sink_9,sink_18] 4
WCcheckFlow[sink_26,sink_4] 1
WCcheckFlow[sink_4,sink_20] 0
WCcheckFlow[sink_18,sink_6] 3
WCcheckFlow[sink_25,innode_8] -36
WCcheckFlow[sink_6,sink_7] 0
WCcheckFlow[sink_6,sink_22] 2
WCcheckFlow[sink_7,sink_24] 3
WCcheckFlow[sink_22,sink_1] 1
WCcheckFlow[sink_24,sink_21] 2
WCcheckFlow[sink_21,sink_12] 1
WCcheckFlow[sink_7,sink_5] -4
WCcheckFlow[sink_5,sink_17] -5
WCcheckFlow[sink_17,sink_4] 0
WCcheckFlow[sink_17,sink_8] -6
WCcheckFlow[sink_3,sink_23] 1
WCcheckFlow[sink_8,sink_20] -7
WCcheckFlow[sink_25,sink_20] 8
WCcheckFlow[sink_25,sink_15] 6
WCcheckFlow[sink_15,sink_29] 5
WCcheckFlow[sink_29,sink_28] 1
WCcheckFlow[sink_29,sink_2] 1
WCcheckFlow[sink_2,sink_15] 0
WCcheckFlow[sink_29,innode_7] 2
WCcheckFlow[innode_4,sink_19] -4
WCcheckFlow[sink_19,innode_3] -5
WCcheckFlow[innode_4,innode_5] 2
WCcheckFlow[sink_27,innode_5] -1
WCcheckFlow[sink_27,sink_19] 0
WCcheckFlow[sink_10,sink_11] 3
WCcheckFlow[sink_10,innode_2] 1
WCcheckFlow[sink_10,innode_3] 6
WCcheckFlow[innode_6,sink_25] -14
WCcheckFlow[sink_11,innode_1] 2
WCcheckFlow[sink_19,innode_2] 0
WCcheckFlow[source_3,innode_4] -1
WCcheckFlow[source_2,innode_7] -1
WCcheckFlow[sink_3,innode_8] 37
